; benchmark generated from python API
(set-info :status unknown)
(declare-fun C () Real)
(declare-fun S_2 () Real)
(declare-fun A_1 () Real)
(declare-fun L_1 () Real)
(declare-fun L_2 () Real)
(declare-fun A_2 () Real)
(declare-fun S_0 () Real)
(declare-fun S_1 () Real)
(declare-fun A_0 () Real)
(declare-fun L_0 () Real)
(assert
 (let ((?x295 (* (- 1.0) A_2)))
 (let ((?x511 (* (- 1.0) S_1)))
 (let ((?x718 (* (- 2.0) L_1)))
 (let (($x931 (<= (+ ?x718 A_1 C ?x511 ?x295 L_2 A_0) 0.0)))
 (let (($x846 (<= (+ (* 2.0 A_0) (* 2.0 C) (* (- 1.0) L_0) ?x511 ?x295) 0.0)))
 (let ((?x302 (* (- 1.0) L_1)))
 (let ((?x293 (* (- 1.0) L_0)))
 (let ((?x366 (* 2.0 C)))
 (let ((?x481 (* 2.0 A_0)))
 (let (($x513 (<= (+ ?x481 ?x366 ?x293 ?x511 ?x295 L_2 ?x302) 0.0)))
 (let (($x1240 (or (not (<= (+ A_0 ?x366 ?x293 ?x295 L_2) 0.0)) $x513 (not $x846) $x931)))
 (let (($x1161 (<= (+ (* (- 1.0) L_2) ?x511 A_0) 0.0)))
 (let ((?x291 (* (- 1.0) L_2)))
 (let (($x264 (= ?x291 ?x302)))
 (let (($x531 (<= (+ A_0 ?x366 ?x293 ?x295 L_2) 0.0)))
 (let (($x525 (<= (+ C ?x295 L_2 ?x302 A_1) 0.0)))
 (let (($x671 (<= (+ A_2 ?x291 L_0 (* (- 1.0) A_0) (* (- 2.0) C)) 0.0)))
 (let (($x675 (<= (+ ?x302 A_1 L_0 (* (- 1.0) A_0) (* (- 1.0) C)) 0.0)))
 (let ((?x398 (* (- 1.0) A_0)))
 (let ((?x514 (* (- 1.0) C)))
 (let ((?x340 (* (- 1.0) A_1)))
 (let (($x673 (<= (+ L_1 ?x340 A_2 ?x291 ?x514) 0.0)))
 (let (($x256 (= ?x302 ?x293)))
 (let (($x220 (or $x256 $x673 (<= (+ (* 2.0 L_1) ?x340 ?x514 S_0 A_2 ?x291 ?x398) 0.0))))
 (let (($x519 (<= (+ (* (- 2.0) A_0) (* (- 2.0) C) L_0 S_0 A_2 ?x291 L_1) 0.0)))
 (let (($x757 (or (<= (+ A_0 (* (- 1.0) S_2) C ?x293) 0.0) (<= (+ ?x302 A_1 (* (- 1.0) S_2)) 0.0))))
 (and (<= ?x302 ?x293) (<= ?x291 ?x302) $x757 (or $x256 $x519 $x673) (or $x264 $x513 $x673 $x931) $x220 (or $x264 $x531 $x675) (or $x264 (not $x671) $x675) (or $x264 $x525 $x671) (or $x525 (<= (+ ?x302 ?x511 A_0) 0.0) (not $x1161)) (or $x264 (not $x525) $x531 $x931) (or $x264 $x513 $x931 $x1161) $x1240 (<= (+ ?x398 ?x514 L_0 S_1) 0.0) (<= (+ ?x398 S_2 (* (- 2.0) C) L_0) 0.0) (<= (+ S_0 L_0 ?x398) 0.0) (<= (+ L_1 ?x340 S_1) 0.0) (<= (+ ?x511 S_0) 0.0) (<= (+ S_2 ?x295 L_2) 0.0) (<= (+ L_1 ?x340 S_2 ?x514) 0.0)))))))))))))))))))))))))))))
(check-sat)
